&GLOBAL

  PROJECT #ABC

  RUN_TYPE ENERGY

  PRINT_LEVEL HIGH

&END GLOBAL

&FORCE_EVAL

  METHOD QS

  &DFT

    BASIS_SET_FILE_NAME BASIS_GW2X

    BASIS_SET_FILE_NAME BASIS_ADMM

    BASIS_SET_FILE_NAME BASIS_MOLOPT

    POTENTIAL_FILE_NAME POTENTIAL

    AUTO_BASIS RI_XAS MEDIUM


    &QS

      METHOD GAPW

    &END QS

    UKS .TRUE.
    &MGRID

      CUTOFF 600

      REL_CUTOFF 50

      NGRIDS 5

    &END MGRID


    &SCF

 #     SCF_GUESS RESTART

      EPS_SCF 1.0E-7

      MAX_SCF 100


      &OT

         MINIMIZER CG

         PRECONDITIONER FULL_ALL

      &END OT


      &OUTER_SCF

         MAX_SCF 40

         EPS_SCF 1.0E-7

      &END OUTER_SCF


    &END SCF


    &AUXILIARY_DENSITY_MATRIX_METHOD

      ADMM_PURIFICATION_METHOD NONE

    &END AUXILIARY_DENSITY_MATRIX_METHOD


    &XC

      &XC_FUNCTIONAL

         &GGA_X_PBE

            SCALE 0.55

         &END

         &GGA_C_PBE

         &END

      &END XC_FUNCTIONAL

      &HF

         FRACTION 0.45

         &INTERACTION_POTENTIAL

            POTENTIAL_TYPE TRUNCATED

            CUTOFF_RADIUS 3.0

         &END INTERACTION_POTENTIAL

      &END HF

    &END XC




  &END DFT

  &SUBSYS

    &CELL

      ABC #ABC
      ALPHA_BETA_GAMMA # alpha beta gamma

    &END CELL

    &TOPOLOGY

      COORD_FILE_FORMAT XYZ

      COORD_FILE_NAME #ABC

    &END TOPOLOGY

    &KIND H

      BASIS_SET DZVP-MOLOPT-SR-GTH

      BASIS_SET AUX_FIT FIT3

      POTENTIAL GTH-PBE

    &END KIND

    &KIND C

      BASIS_SET DZVP-MOLOPT-SR-GTH

      BASIS_SET AUX_FIT FIT3

      POTENTIAL GTH-PBE

    &END KIND

    &KIND Cx

      ELEMENT C

      BASIS_SET aug-pcseg-2

      BASIS_SET AUX_FIT aug-admm-2

      POTENTIAL ALL

    &END KIND

    &KIND O

      BASIS_SET DZVP-MOLOPT-SR-GTH

      BASIS_SET AUX_FIT FIT3

      POTENTIAL GTH-PBE

    &END KIND

  &END SUBSYS

&END FORCE_EVAL

&MOTION


  &PRINT

    &TRAJECTORY

      FORMAT XYZ

      UNIT angstrom

      &EACH

        MD 1

      &END EACH

    &END TRAJECTORY

    &RESTART

      &EACH

        MD 1

      &END EACH

    &END RESTART

  &END PRINT

&END MOTION
